(declare-const term_to_project_onto Real)
(declare-const term_to_project_onto0 Real)
(declare-const term_to_project_onto3 Real)
(declare-const term_to_project_onto4 Real)
(declare-const term_to_project_onto2 Real)
(declare-const term_to_project_onto1 Real)
(declare-const term_to_project_onto5 Real)
(declare-const term_to_project_onto6 Real)
(declare-const tmp___1 Int)
(assert (exists
         ((uninterp?1 Int) (uninterp?2 Int) (uninterp?3 Int) (uninterp?4 Int)
            (uninterp?5 Int) (uninterp?6 Int) (uninterp?7 Int)
            (|tmp___1'?8| Int) (|counter'?9| Int) (|y'?10| Int) (|u'?11| Int)
            (|tmp___0'?12| Int) (K?13 Int) (|counter'?14| Int) (|x'?15| Int)
            (|v'?16| Int) (|tmp'?17| Int) (K?18 Int) (|tmp'?19| Int)
            (|v'?20| Int) (|x'?21| Int) (|tmp___0'?22| Int) (|u'?23| Int)
            (|y'?24| Int) (|counter'?25| Int) (tmp___0?26 Int) (tmp?27 Int)
            (x?28 Int) (u?29 Int) (y?30 Int) (v?31 Int) (counter?32 Int)
            (b?33 Int) (a?34 Int))
         (and (<= (+ (- x?28) 1) 0) (<= (+ (- u?29) 1) 0)
                (<= (+ (- y?30) 1) 0) (= v?31 0) (<= (- counter?32) 0)
                (<= (+ (- b?33) 1) 0) (<= (+ (- a?34) 1) 0) (= v?31 0)
                (= (+ y?30 (- u?29)) 0) (<= counter?32 0)
                (= (+ (- uninterp?7) uninterp?6 uninterp?5) 0)
                (or (<= (+ (- y?30) x?28 1) 0) (<= (+ y?30 (- x?28) 1) 0))
                (<= K?18 0) (= K?18 0) (= (+ (- |tmp'?17|) tmp?27) 0)
                (= (+ (- |v'?16|) v?31) 0) (= (+ (- |x'?15|) x?28) 0)
                (= (+ (- |counter'?14|) counter?32 1) 0) (<= (- K?18) 0)
                (<= (+ (- |x'?15|) 1) 0) (<= (+ (- u?29) 1) 0)
                (<= (+ (- y?30) 1) 0) (= |v'?16| 0)
                (<= (+ (- |counter'?14|) 1) 0) (<= (+ (- b?33) 1) 0)
                (<= (+ (- a?34) 1) 0) (= |v'?16| 0) (= (+ y?30 (- u?29)) 0)
                (or (and (<= |counter'?14| 0)
                           (= (+ (- uninterp?7) uninterp?4 uninterp?3) 0)
                           (<= (+ |x'?15| (- y?30)) 0))
                      (<= (+ (- |counter'?14|) 1) 0)) (<= K?13 0) (= 
                K?13 0) (= (+ (- |tmp___0'?12|) tmp___0?26) 0)
                (= (+ (- |u'?11|) u?29) 0) (= (+ (- |y'?10|) y?30) 0)
                (= (+ (- |counter'?9|) |counter'?14| 1) 0) (<= (- K?13) 0)
                (<= (+ (- |x'?15|) 1) 0) (<= (+ (- |u'?11|) 1) 0)
                (<= (+ (- |y'?10|) 1) 0) (= |v'?16| 0)
                (<= (+ (- |counter'?9|) 1) 0) (<= (+ (- b?33) 1) 0)
                (<= (+ (- a?34) 1) 0) (= |v'?16| 0)
                (= (+ |y'?10| (- |u'?11|)) 0)
                (or (and (<= |counter'?9| 0)
                           (= (+ uninterp?2 uninterp?1 (- uninterp?7)) 0)
                           (<= (+ |y'?10| (- |x'?15|)) 0))
                      (<= (+ (- |counter'?9|) 1) 0))
                (= (+ |tmp___1'?8| (- counter?32)) 0)
                (= (+ |tmp___0'?22| (- |counter'?9|)) 0)
                (= (+ |tmp'?19| (- |counter'?14|)) 0)
                (= (+ |v'?20| (- |v'?16|)) 0) (= (+ |u'?23| (- |u'?11|)) 0)
                (= (+ |y'?24| (- |y'?10|)) 0) (= (+ |x'?21| (- |x'?15|)) 0)
                (= (+ |counter'?25| (- |counter'?9|) -1) 0) (<= 0 uninterp?1)
                (<= |v'?16| uninterp?1) (<= uninterp?1 0) (<= 1 uninterp?2)
                (<= |x'?15| uninterp?2) (<= |u'?11| uninterp?2)
                (<= 1 uninterp?3) (<= u?29 uninterp?3)
                (<= |x'?15| uninterp?3) (<= 0 uninterp?4)
                (<= |v'?16| uninterp?4) (<= uninterp?4 0) (<= 1 uninterp?5)
                (<= x?28 uninterp?5) (<= u?29 uninterp?5) (<= 0 uninterp?6)
                (<= v?31 uninterp?6) (<= uninterp?6 0) (<= 1 uninterp?7)
                (<= b?33 uninterp?7) (<= a?34 uninterp?7)
                (= 0 (+ (- uninterp?7) uninterp?6 uninterp?5))
                (= 0 (+ (- uninterp?6) uninterp?4))
                (= 0 (+ (- uninterp?7) uninterp?6 uninterp?2))
                (= term_to_project_onto6 (+ |counter'?25| (- counter?32)))
                (= term_to_project_onto5 (+ |x'?21| (- x?28)))
                (= term_to_project_onto4 (+ |y'?24| (- y?30)))
                (= term_to_project_onto3 (+ |u'?23| (- u?29)))
                (= term_to_project_onto2 (+ |v'?20| (- v?31)))
                (= term_to_project_onto1 (+ |tmp'?19| (- tmp?27)))
                (= term_to_project_onto0 (+ |tmp___0'?22| (- tmp___0?26)))
                (= term_to_project_onto (+ |tmp___1'?8| (- tmp___1))))))
(check-sat)
